(set-logic HORN)
(declare-fun state (Int Int Int (Array Int Int) (Array Int Int) (Array Int Int) Int Int Int Int Int Int (Array Int Int) (Array Int Int) Int Int Int Int Int Int Int Int Int Int Int Int Bool Bool Bool) Bool)
(assert (forall ((|hhv_ULTIMATE.start_L-1_0_Int| Int) (|hbv_ULTIMATE.start_ULTIMATE.startENTRY_1_Int| Int) (|hhv_ULTIMATE.start_L-1_2_Int| Int) (|hbv_ULTIMATE.start_ULTIMATE.startENTRY_3_Array_Int_Int| (Array Int Int)) (|hhv_ULTIMATE.start_L-1_4_Array_Int_Int| (Array Int Int)) (|hhv_ULTIMATE.start_L-1_5_Array_Int_Array_Int_Int| (Array Int Int)) (|hbv_ULTIMATE.start_ULTIMATE.startENTRY_6_Int| Int) (|hhv_ULTIMATE.start_L-1_7_Int| Int) (|hbv_ULTIMATE.start_ULTIMATE.startENTRY_8_Int| Int) (|hhv_ULTIMATE.start_L-1_9_Int| Int) (|hbv_ULTIMATE.start_ULTIMATE.startENTRY_10_Int| Int) (|hhv_ULTIMATE.start_L-1_11_Int| Int) (|hbv_ULTIMATE.start_ULTIMATE.startENTRY_12_Array_Int_Int| (Array Int Int)) (|hhv_ULTIMATE.start_L-1_13_Array_Int_Int| (Array Int Int)) (|hbv_ULTIMATE.start_ULTIMATE.startENTRY_14_Int| Int) (|hhv_ULTIMATE.start_L-1_15_Int| Int) (|hhv_ULTIMATE.start_L-1_16_Int| Int) (|hhv_ULTIMATE.start_L-1_17_Int| Int) (|hhv_ULTIMATE.start_L-1_18_Int| Int) (|hhv_ULTIMATE.start_L-1_19_Int| Int) (|hhv_ULTIMATE.start_L-1_20_Int| Int) (|hhv_ULTIMATE.start_L-1_21_Int| Int) (|hhv_ULTIMATE.start_L-1_22_Int| Int) (|hhv_ULTIMATE.start_L-1_23_Int| Int) (|hhv_ULTIMATE.start_L-1_24_Int| Int) (|hhv_ULTIMATE.start_L-1_25_Int| Int) (|hhv_ULTIMATE.start_L-1_26_Bool| Bool) (|.loc.3| Bool) (|.loc.4| Bool) (|.x.93| Int) (|.x.95| Int) (|.x.97| (Array Int Int)) (|.x.98| (Array Int Int)) (|.x.100| Int) (|.x.102| Int) (|.x.104| Int) (|.x.108| Int) (|.x.106| (Array Int Int)) (|.loc.5| Bool) (|.loc.6| Bool) (|.x.113| Int) (|.x.115| Int) (|.x.110| Int) (|.x.116| Int) (|.x.117| Int) (|.x.109| Int) (|.x.112| Int) (|.x.118| Int) (|.x.103| Int) (|.x.99| Int) (|.x.111| Int) (|hhv_ULTIMATE.start_ULTIMATE.startEXIT_26_Bool| Bool) (|.x.96| (Array Int Int)) (|.x.105| (Array Int Int)) (|.x.101| Int) (|.x.107| Int) (|.x.94| Int) (|.x.114| Int)) (=> (and (and (not .loc.4) (not .loc.3)) (and (and (and (and (and (and (and (= hbv_ULTIMATE.start_ULTIMATE.startENTRY_12_Array_Int_Int hhv_ULTIMATE.start_L-1_13_Array_Int_Int) (= hbv_ULTIMATE.start_ULTIMATE.startENTRY_3_Array_Int_Int hhv_ULTIMATE.start_L-1_4_Array_Int_Int)) (= hbv_ULTIMATE.start_ULTIMATE.startENTRY_6_Int hhv_ULTIMATE.start_L-1_7_Int)) (not hhv_ULTIMATE.start_L-1_26_Bool)) (= hbv_ULTIMATE.start_ULTIMATE.startENTRY_8_Int hhv_ULTIMATE.start_L-1_9_Int)) (= hbv_ULTIMATE.start_ULTIMATE.startENTRY_10_Int hhv_ULTIMATE.start_L-1_11_Int)) (= hbv_ULTIMATE.start_ULTIMATE.startENTRY_14_Int hhv_ULTIMATE.start_L-1_15_Int)) (= hbv_ULTIMATE.start_ULTIMATE.startENTRY_1_Int hhv_ULTIMATE.start_L-1_2_Int))) (state |hhv_ULTIMATE.start_L-1_0_Int| |hbv_ULTIMATE.start_ULTIMATE.startENTRY_1_Int| |hhv_ULTIMATE.start_L-1_2_Int| |hbv_ULTIMATE.start_ULTIMATE.startENTRY_3_Array_Int_Int| |hhv_ULTIMATE.start_L-1_4_Array_Int_Int| |hhv_ULTIMATE.start_L-1_5_Array_Int_Array_Int_Int| |hbv_ULTIMATE.start_ULTIMATE.startENTRY_6_Int| |hhv_ULTIMATE.start_L-1_7_Int| |hbv_ULTIMATE.start_ULTIMATE.startENTRY_8_Int| |hhv_ULTIMATE.start_L-1_9_Int| |hbv_ULTIMATE.start_ULTIMATE.startENTRY_10_Int| |hhv_ULTIMATE.start_L-1_11_Int| |hbv_ULTIMATE.start_ULTIMATE.startENTRY_12_Array_Int_Int| |hhv_ULTIMATE.start_L-1_13_Array_Int_Int| |hbv_ULTIMATE.start_ULTIMATE.startENTRY_14_Int| |hhv_ULTIMATE.start_L-1_15_Int| |hhv_ULTIMATE.start_L-1_16_Int| |hhv_ULTIMATE.start_L-1_17_Int| |hhv_ULTIMATE.start_L-1_18_Int| |hhv_ULTIMATE.start_L-1_19_Int| |hhv_ULTIMATE.start_L-1_20_Int| |hhv_ULTIMATE.start_L-1_21_Int| |hhv_ULTIMATE.start_L-1_22_Int| |hhv_ULTIMATE.start_L-1_23_Int| |hhv_ULTIMATE.start_L-1_24_Int| |hhv_ULTIMATE.start_L-1_25_Int| |hhv_ULTIMATE.start_L-1_26_Bool| |.loc.3| |.loc.4|))))
(assert (forall ((|hhv_ULTIMATE.start_L-1_0_Int| Int) (|hbv_ULTIMATE.start_ULTIMATE.startENTRY_1_Int| Int) (|hhv_ULTIMATE.start_L-1_2_Int| Int) (|hbv_ULTIMATE.start_ULTIMATE.startENTRY_3_Array_Int_Int| (Array Int Int)) (|hhv_ULTIMATE.start_L-1_4_Array_Int_Int| (Array Int Int)) (|hhv_ULTIMATE.start_L-1_5_Array_Int_Array_Int_Int| (Array Int Int)) (|hbv_ULTIMATE.start_ULTIMATE.startENTRY_6_Int| Int) (|hhv_ULTIMATE.start_L-1_7_Int| Int) (|hbv_ULTIMATE.start_ULTIMATE.startENTRY_8_Int| Int) (|hhv_ULTIMATE.start_L-1_9_Int| Int) (|hbv_ULTIMATE.start_ULTIMATE.startENTRY_10_Int| Int) (|hhv_ULTIMATE.start_L-1_11_Int| Int) (|hbv_ULTIMATE.start_ULTIMATE.startENTRY_12_Array_Int_Int| (Array Int Int)) (|hhv_ULTIMATE.start_L-1_13_Array_Int_Int| (Array Int Int)) (|hbv_ULTIMATE.start_ULTIMATE.startENTRY_14_Int| Int) (|hhv_ULTIMATE.start_L-1_15_Int| Int) (|hhv_ULTIMATE.start_L-1_16_Int| Int) (|hhv_ULTIMATE.start_L-1_17_Int| Int) (|hhv_ULTIMATE.start_L-1_18_Int| Int) (|hhv_ULTIMATE.start_L-1_19_Int| Int) (|hhv_ULTIMATE.start_L-1_20_Int| Int) (|hhv_ULTIMATE.start_L-1_21_Int| Int) (|hhv_ULTIMATE.start_L-1_22_Int| Int) (|hhv_ULTIMATE.start_L-1_23_Int| Int) (|hhv_ULTIMATE.start_L-1_24_Int| Int) (|hhv_ULTIMATE.start_L-1_25_Int| Int) (|hhv_ULTIMATE.start_L-1_26_Bool| Bool) (|.loc.3| Bool) (|.loc.4| Bool) (|.x.93| Int) (|.x.95| Int) (|.x.97| (Array Int Int)) (|.x.98| (Array Int Int)) (|.x.100| Int) (|.x.102| Int) (|.x.104| Int) (|.x.108| Int) (|.x.106| (Array Int Int)) (|.loc.5| Bool) (|.loc.6| Bool) (|.x.113| Int) (|.x.115| Int) (|.x.110| Int) (|.x.116| Int) (|.x.117| Int) (|.x.109| Int) (|.x.112| Int) (|.x.118| Int) (|.x.103| Int) (|.x.99| Int) (|.x.111| Int) (|hhv_ULTIMATE.start_ULTIMATE.startEXIT_26_Bool| Bool) (|.x.96| (Array Int Int)) (|.x.105| (Array Int Int)) (|.x.101| Int) (|.x.107| Int) (|.x.94| Int) (|.x.114| Int)) (=> (and (state |hhv_ULTIMATE.start_L-1_0_Int| |hbv_ULTIMATE.start_ULTIMATE.startENTRY_1_Int| |hhv_ULTIMATE.start_L-1_2_Int| |hbv_ULTIMATE.start_ULTIMATE.startENTRY_3_Array_Int_Int| |hhv_ULTIMATE.start_L-1_4_Array_Int_Int| |hhv_ULTIMATE.start_L-1_5_Array_Int_Array_Int_Int| |hbv_ULTIMATE.start_ULTIMATE.startENTRY_6_Int| |hhv_ULTIMATE.start_L-1_7_Int| |hbv_ULTIMATE.start_ULTIMATE.startENTRY_8_Int| |hhv_ULTIMATE.start_L-1_9_Int| |hbv_ULTIMATE.start_ULTIMATE.startENTRY_10_Int| |hhv_ULTIMATE.start_L-1_11_Int| |hbv_ULTIMATE.start_ULTIMATE.startENTRY_12_Array_Int_Int| |hhv_ULTIMATE.start_L-1_13_Array_Int_Int| |hbv_ULTIMATE.start_ULTIMATE.startENTRY_14_Int| |hhv_ULTIMATE.start_L-1_15_Int| |hhv_ULTIMATE.start_L-1_16_Int| |hhv_ULTIMATE.start_L-1_17_Int| |hhv_ULTIMATE.start_L-1_18_Int| |hhv_ULTIMATE.start_L-1_19_Int| |hhv_ULTIMATE.start_L-1_20_Int| |hhv_ULTIMATE.start_L-1_21_Int| |hhv_ULTIMATE.start_L-1_22_Int| |hhv_ULTIMATE.start_L-1_23_Int| |hhv_ULTIMATE.start_L-1_24_Int| |hhv_ULTIMATE.start_L-1_25_Int| |hhv_ULTIMATE.start_L-1_26_Bool| |.loc.3| |.loc.4|) (let ((.def_40 (not .loc.3))) (let ((.def_91 (= .x.113 .x.115))) (let ((.def_95 (= .x.110 .x.116))) (let ((.def_119 (and (= .x.115 .x.117) (and (= .x.116 .x.109) (and (= .x.110 .x.112) (and (= .x.113 .x.118) (and (= .x.109 .x.103) (and (= .x.112 .x.103) (and (= .x.117 .x.99) (= .x.118 .x.99)))))))))) (let ((.def_122 (= hhv_ULTIMATE.start_L-1_18_Int .x.111))) (let ((.def_150 (= .x.99 0))) (let ((.def_161 (or hhv_ULTIMATE.start_L-1_26_Bool (and (= (select (select hhv_ULTIMATE.start_L-1_5_Array_Int_Array_Int_Int .x.99) .x.103) 0) (and (= .x.103 0) (and (not (<= hhv_ULTIMATE.start_L-1_0_Int .x.99)) (and (= (store (store hbv_ULTIMATE.start_ULTIMATE.startENTRY_3_Array_Int_Int 0 0) .x.99 1) .x.96) (and (and (and (and (and (= (store hbv_ULTIMATE.start_ULTIMATE.startENTRY_12_Array_Int_Int .x.99 4) .x.105) (= .x.101 0)) (= .x.107 0)) (= .x.94 0)) (not .def_150)) (= (ite .def_150 0 (select hbv_ULTIMATE.start_ULTIMATE.startENTRY_3_Array_Int_Int .x.99)) 0))))))))) (let ((.def_187 (= hhv_ULTIMATE.start_L-1_26_Bool hhv_ULTIMATE.start_ULTIMATE.startEXIT_26_Bool))) (let ((.def_214 (not .loc.6))) (and (and (not .loc.4) (and (= hhv_ULTIMATE.start_L-1_0_Int .x.93) (and (= hhv_ULTIMATE.start_L-1_2_Int .x.95) (and (= hhv_ULTIMATE.start_L-1_4_Array_Int_Int .x.97) (and (= hhv_ULTIMATE.start_L-1_5_Array_Int_Array_Int_Int .x.98) (and (= hhv_ULTIMATE.start_L-1_7_Int .x.100) (and (= hhv_ULTIMATE.start_L-1_9_Int .x.102) (and (= hhv_ULTIMATE.start_L-1_11_Int .x.104) (and (= hhv_ULTIMATE.start_L-1_15_Int .x.108) (= hhv_ULTIMATE.start_L-1_13_Array_Int_Int .x.106)))))))))) (or (or (and (and (not .loc.5) .loc.6) (or (and .def_40 (and (or hhv_ULTIMATE.start_L-1_26_Bool (or (not .def_91) (not .def_95))) (and (or hhv_ULTIMATE.start_L-1_26_Bool .def_119) (and (and .def_122 hhv_ULTIMATE.start_ULTIMATE.startEXIT_26_Bool) .def_161)))) (and (or hhv_ULTIMATE.start_L-1_26_Bool (= .x.114 0)) (and (= hbv_ULTIMATE.start_ULTIMATE.startENTRY_1_Int .x.94) (and (= hbv_ULTIMATE.start_ULTIMATE.startENTRY_3_Array_Int_Int .x.96) (and (= hbv_ULTIMATE.start_ULTIMATE.startENTRY_6_Int .x.99) (and (= hbv_ULTIMATE.start_ULTIMATE.startENTRY_8_Int .x.101) (and (= hbv_ULTIMATE.start_ULTIMATE.startENTRY_10_Int .x.103) (and (= hbv_ULTIMATE.start_ULTIMATE.startENTRY_12_Array_Int_Int .x.105) (and (= hbv_ULTIMATE.start_ULTIMATE.startENTRY_14_Int .x.107) (and (= hhv_ULTIMATE.start_L-1_16_Int .x.109) (and (= hhv_ULTIMATE.start_L-1_17_Int .x.110) (and (= hhv_ULTIMATE.start_L-1_19_Int .x.112) (and (= hhv_ULTIMATE.start_L-1_20_Int .x.113) (and (= hhv_ULTIMATE.start_L-1_22_Int .x.115) (and (= hhv_ULTIMATE.start_L-1_23_Int .x.116) (and (= hhv_ULTIMATE.start_L-1_24_Int .x.117) (and (= hhv_ULTIMATE.start_L-1_25_Int .x.118) (and (and .loc.3 (or hhv_ULTIMATE.start_ULTIMATE.startEXIT_26_Bool (= .x.111 .x.114))) .def_187))))))))))))))))))) (and (or .def_119 hhv_ULTIMATE.start_ULTIMATE.startEXIT_26_Bool) (and (or hhv_ULTIMATE.start_ULTIMATE.startEXIT_26_Bool (and .def_91 .def_95)) (and (and .def_187 (and .loc.5 (and .def_40 (and .def_122 .def_161)))) .def_214)))) (and .def_214 (and .loc.5 (and .def_40 (and .def_161 (and .def_122 (and hhv_ULTIMATE.start_L-1_26_Bool hhv_ULTIMATE.start_ULTIMATE.startEXIT_26_Bool)))))))))))))))))) (state |.x.93| |.x.94| |.x.95| |.x.96| |.x.97| |.x.98| |.x.99| |.x.100| |.x.101| |.x.102| |.x.103| |.x.104| |.x.105| |.x.106| |.x.107| |.x.108| |.x.109| |.x.110| |.x.111| |.x.112| |.x.113| |.x.114| |.x.115| |.x.116| |.x.117| |.x.118| |hhv_ULTIMATE.start_ULTIMATE.startEXIT_26_Bool| |.loc.5| |.loc.6|))))
(assert (forall ((|hhv_ULTIMATE.start_L-1_0_Int| Int) (|hbv_ULTIMATE.start_ULTIMATE.startENTRY_1_Int| Int) (|hhv_ULTIMATE.start_L-1_2_Int| Int) (|hbv_ULTIMATE.start_ULTIMATE.startENTRY_3_Array_Int_Int| (Array Int Int)) (|hhv_ULTIMATE.start_L-1_4_Array_Int_Int| (Array Int Int)) (|hhv_ULTIMATE.start_L-1_5_Array_Int_Array_Int_Int| (Array Int Int)) (|hbv_ULTIMATE.start_ULTIMATE.startENTRY_6_Int| Int) (|hhv_ULTIMATE.start_L-1_7_Int| Int) (|hbv_ULTIMATE.start_ULTIMATE.startENTRY_8_Int| Int) (|hhv_ULTIMATE.start_L-1_9_Int| Int) (|hbv_ULTIMATE.start_ULTIMATE.startENTRY_10_Int| Int) (|hhv_ULTIMATE.start_L-1_11_Int| Int) (|hbv_ULTIMATE.start_ULTIMATE.startENTRY_12_Array_Int_Int| (Array Int Int)) (|hhv_ULTIMATE.start_L-1_13_Array_Int_Int| (Array Int Int)) (|hbv_ULTIMATE.start_ULTIMATE.startENTRY_14_Int| Int) (|hhv_ULTIMATE.start_L-1_15_Int| Int) (|hhv_ULTIMATE.start_L-1_16_Int| Int) (|hhv_ULTIMATE.start_L-1_17_Int| Int) (|hhv_ULTIMATE.start_L-1_18_Int| Int) (|hhv_ULTIMATE.start_L-1_19_Int| Int) (|hhv_ULTIMATE.start_L-1_20_Int| Int) (|hhv_ULTIMATE.start_L-1_21_Int| Int) (|hhv_ULTIMATE.start_L-1_22_Int| Int) (|hhv_ULTIMATE.start_L-1_23_Int| Int) (|hhv_ULTIMATE.start_L-1_24_Int| Int) (|hhv_ULTIMATE.start_L-1_25_Int| Int) (|hhv_ULTIMATE.start_L-1_26_Bool| Bool) (|.loc.3| Bool) (|.loc.4| Bool) (|.x.93| Int) (|.x.95| Int) (|.x.97| (Array Int Int)) (|.x.98| (Array Int Int)) (|.x.100| Int) (|.x.102| Int) (|.x.104| Int) (|.x.108| Int) (|.x.106| (Array Int Int)) (|.loc.5| Bool) (|.loc.6| Bool) (|.x.113| Int) (|.x.115| Int) (|.x.110| Int) (|.x.116| Int) (|.x.117| Int) (|.x.109| Int) (|.x.112| Int) (|.x.118| Int) (|.x.103| Int) (|.x.99| Int) (|.x.111| Int) (|hhv_ULTIMATE.start_ULTIMATE.startEXIT_26_Bool| Bool) (|.x.96| (Array Int Int)) (|.x.105| (Array Int Int)) (|.x.101| Int) (|.x.107| Int) (|.x.94| Int) (|.x.114| Int)) (=> (state |hhv_ULTIMATE.start_L-1_0_Int| |hbv_ULTIMATE.start_ULTIMATE.startENTRY_1_Int| |hhv_ULTIMATE.start_L-1_2_Int| |hbv_ULTIMATE.start_ULTIMATE.startENTRY_3_Array_Int_Int| |hhv_ULTIMATE.start_L-1_4_Array_Int_Int| |hhv_ULTIMATE.start_L-1_5_Array_Int_Array_Int_Int| |hbv_ULTIMATE.start_ULTIMATE.startENTRY_6_Int| |hhv_ULTIMATE.start_L-1_7_Int| |hbv_ULTIMATE.start_ULTIMATE.startENTRY_8_Int| |hhv_ULTIMATE.start_L-1_9_Int| |hbv_ULTIMATE.start_ULTIMATE.startENTRY_10_Int| |hhv_ULTIMATE.start_L-1_11_Int| |hbv_ULTIMATE.start_ULTIMATE.startENTRY_12_Array_Int_Int| |hhv_ULTIMATE.start_L-1_13_Array_Int_Int| |hbv_ULTIMATE.start_ULTIMATE.startENTRY_14_Int| |hhv_ULTIMATE.start_L-1_15_Int| |hhv_ULTIMATE.start_L-1_16_Int| |hhv_ULTIMATE.start_L-1_17_Int| |hhv_ULTIMATE.start_L-1_18_Int| |hhv_ULTIMATE.start_L-1_19_Int| |hhv_ULTIMATE.start_L-1_20_Int| |hhv_ULTIMATE.start_L-1_21_Int| |hhv_ULTIMATE.start_L-1_22_Int| |hhv_ULTIMATE.start_L-1_23_Int| |hhv_ULTIMATE.start_L-1_24_Int| |hhv_ULTIMATE.start_L-1_25_Int| |hhv_ULTIMATE.start_L-1_26_Bool| |.loc.3| |.loc.4|) (not (and hhv_ULTIMATE.start_L-1_26_Bool (and .loc.4 (not .loc.3)))))))
(check-sat)
